[1,280,3,279,278,248,249,256,255,252,209,208,253,254,257,258,259,260,261,262,263,264,265,266,140,141,142,143,144,200,199,145,146,147,148,149,139,138,137,267,268,136,135,269,270,134,133,132,19,18,17,16,271,272,273,274,275,276,277,4,5,6,7,8,9,10,11,12,15,13,14,24,23,25,22,26,27,28,29,31,32,33,34,35,36,37,38,39,40,41,42,43,60,61,118,117,115,116,86,85,65,66,64,63,62,59,44,45,46,47,48,49,50,51,52,53,54,55,56,57,58,68,69,67,70,71,72,73,74,75,76,77,78,79,80,81,82,88,83,84,87,113,114,111,112,110,108,109,89,90,91,92,93,94,95,96,97,98,99,100,101,102,103,104,105,106,107,174,173,171,172,170,169,168,167,166,165,164,163,162,161,175,160,159,158,157,119,120,121,122,123,124,125,30,126,127,128,21,20,131,130,129,154,155,153,156,152,151,177,178,150,179,180,176,181,182,183,184,185,186,187,188,189,190,191,192,193,194,195,196,197,198,201,202,203,204,205,206,207,210,211,212,213,214,215,216,217,218,219,220,221,222,223,224,225,226,227,228,229,230,251,250,247,244,245,246,231,232,233,234,235,236,237,238,239,240,241,243,242,2]
[1,3,7,8,10,11,12,15,16,17,18,19,20,21,23,24,25,27,28,29,30,31,33,34,36,40,41,42,45,47,48,51,53,54,57,59,60,61,62,63,65,66,69,70,71,72,73,74,75,76,77,80,82,83,86,87,88,89,91,93,94,96,97,99,100,102,103,104,105,106,108,109,110,111,113,114,115,116,117,118,120,121,122,124,125,126,128,129,130,131,132,134,135,136,137,138,140,141,142,145,150,151,152,153,154,156,157,158,159,160,161,163,164,165,166,167,168,169,171,172,173,174,176,178,179,180,181,182,185,186,187,189,190,192,193,194,195,196,198,199,201,202,203,204,205,206,208,209,210,211,213,214,215,216,217,218,219,220,221,222,223,224,225,226,227,228,229,230,231,232,233,235,236,237,238,239,240,241,242,244,245,246,249,250,252,255,257,258,259,260,261,262,263,264,268,271,273,274,275,276,277,279,280,282,284,285,288,290,291,293,294,295,296,297,298,300,301,302,305,306,307,308,309,311,313,315,316,317,318,322,324,327,328,329,330,331,334,335,338,339,342,343,344,345,346,348,349,350,353,354,355,357,358,360,361,362,363,365,366,367,368,369,370,371,372,373,374,375,376,377,378,379,380,381,382,383,386,387,388,389,390,393,395,396,397,399,400,401,403,406,407,408,409,410,411,412,413,414,416,417,419,421,423,427,428,429,430,431,432,433,434,435,437,438,440,441,442,444,446,447,448,449,450,451,452,453,454,456,457,458,459,460,461,462,463,464,465,466,469,470,471,472,474,475,476,478,479,480,481,482,483,484,485,486,488,489,490,491,492,493,494,495,496,497,498,499,500,501,502,503,504,505,506,507,508,509,510,511,512,513,514,515,517,518,519,520,521,522,523,524,525,526,528,529,530,531,533,536,537,538,539,540,541,543,544,546,547,548,549,551,554,556,557,558,559,561,562,563,565,566,568,570,571,572,574,575,576,578,579,580,581,582,583,585,586,587,588,591,592,593,594,597,601,602,603,604,605,608,609,613,614,615,617,619,620,621,623,627,628,632,633,634,639,641,642,643,644,646,647,652,654,655,656,657,658,659,663,664,665,667,668,669,670,671,673,674,675,676,677,679,680,681,682,683,684,688,691,693,694,695,697,698,699,700,701,703,705,707,708,709,710,712,713,714,715,716,717,718,719,721,722,727,728,730,731,732,733,734,736,737,739,740,741,742,743,744,745,746,747,748,749,752,753,754,756,757,758,759,760,761,762,763,764,766,767,768,770,771,772,773,774,775,777,778,779,780,781,782,783,784,786,787,788,789,790,791,792,793,794,795,796,797,798,799,800,801,803,804,806,807,808,811,813,815,817,821,825,827,828,829,832,836,837,838,839,840,841,843,844,845,846,847,848,849,850,853,854,856,859,860,861,863,865,866,872,873,874,875,876,879,880,881,882,883,884,885,886,887,889,890,892,893,894,897,899,900,901,902,905,906,907,909,914,915,918,919,920,921,922,924,925,927,928,929,930,931,932,934,935,936,937,938,939,941,943,944,945,947,949,950,951,952,955,956,957,958,959,960,961,962,963,964,965,967,968,971,980,982,983,985,986,987,988,990,991,992,993,994,995,996,997,998,999,1000,1001,1002,1003,1004,1005,1006,1007,1008,1009,1010,1011,1012,1014,1015,1016,1018,1019,1021,1022,1023,1025,1026,1027,1028,1029,1030,1031,1032,1033,1034,1035,1036,1037,1038,1039,1040,1041,1042,1044,1046,1047,1048,1049,1050,1053,1054,1055,1056,1057,1058,1059,1060,1061,1062,1063,1064,1065,1066,1067,1068,1069,1070,1071,1072,1073,1074,1075,1076,1077,1078,1079,1080,1081,1082,1083,1086,1087,1088,1089,1090,1092,1093,1095,1097,1098,1099,1100,1101,1102,1104,1105,1107,1108,1109,1110,1112,1117,1118,1119,1120,1121,1123,1124,1126,1128,1129,1134,1135,1136,1137,1139,1141,1143,1145,1146,1148,1149,1151,1153,1154,1155,1156,1157,1158,1160,1162,1164,1169,1170,1171,1172,1173,1174,1175,1176,1177,1178,1179,1181,1182,1183,1185,1186,1187,1188,1189,1190,1191,1194,1196,1198,1200,1201,1202,1203,1205,1207,1209,1210,1211,1213,1215,1217,1218,1221,1223,1225,1227,1228,1229,1230,1234,1235,1236,1238,1239,1240,1241,1242,1243,1245,1246,1248,1253,1255,1256,1257,1259,1261,1262,1263,1264,1265,1266,1267,1268,1269,1270,1271,1272,1273,1274,1277,1279,1280,1282,1283,1284,1286,1289,1290,1291,1292,1293,1295,1296,1297,1298,1299,1301,1303,1304,1305,1306,1307,1310,1312,1313,1316,1317,1318,1319,1320,1321,1322,1325,1326,1327,1328,1329,1331,1332,1333,1334,1335,1336,1337,1339,1340,1341,1342,1343,1344,1346,1347,1348,1349,1350,1351,1352,1353,1354,1355,1356,1357,1358,1359,1360,1361,1362,1363,1365,1366,1367,1368,1370,1371,1372,1373,1374,1375,1376,1377,1378,1379,1382,1384,1385,1386,1388,1389,1392,1393,1394,1396,1397,1398,1399,1400,1402,1403,1404,1405,1406,1407,1408,1409,1412,1413,1414,1415,1418,1419,1420,1421,1424,1425,1426,1427,1428,1430,1431,1433,1435,1436,1437,1438,1439,1440,1443,1444,1445,1447,1448,1449,1451,1452,1454,1455,1456,1459,1460,1461,1462,1463,1464,1465,1466,1467,1469,1472,1474,1475,1476,1477,1478,1480,1482,1483,1484,1485,1487,1488,1489,1490,1492,1493,1494,1495,1496,1497,1499,1500,1501,1502,1504,1506,1507,1509,1512,1513,1514,1515,1516,1518,1519,1520,1521,1522,1523,1524,1525,1527,1529,1530,1531,1532,1533,1534,1535,1536,1541,1543,1544,1546,1547,1550,1551,1552,1553,1554,1555,1556,1557,1558,1560,1564,1565,1566,1567,1568,1569,1571,1572,1573,1574,1575,1576,1577,1579,1580,1581,1582,1583,1584,1585,1586,1587,1590,1591,1592,1594,1595,1596,1597,1598,1600,1601,1603,1604,1606,1608,1609,1610,1611,1612,1613,1614,1615,1616,1617,1618,1619,1620,1621,1622,1623,1625,1626,1628,1629,1630,1631,1632,1633,1634,1635,1636,1637,1638,1639,1640,1641,1642,1643,1644,1645,1647,1649,1651,1652,1653,1655,1656,1658,1660,1661,1662,1663,1664,1665,1666,1668,1673,1675,1676,1677,1679,1680,1683,1686,1687,1689,1691,1692,1693,1694,1696,1697,1698,1699,1701,1702,1703,1704,1711,1712,1714,1716,1717,1718,1720,1721,1722,1723,1724,1725,1726,1727,1728,1730,1731,1733,1736,1739,1740,1741,1743,1744,1746,1748,1750,1751,1752,1754,1756,1757,1758,1761,1762,1764,1765,1767,1768,1769,1770,1771,1772,1773,1774,1775,1776,1777,1779,1780,1781,1782,1783,1784,1785,1787,1788,1789,1790,1792,1793,1794,1795,1796,1797,1798,1799,1800,1801,1802,1803,1804,1806,1807,1808,1811,1812,1813,1815,1816,1819,1820,1822,1824,1825,1827,1828,1829,1830,1832,1833,1834,1837,1838,1840,1841,1842,1843,1844,1845,1846,1847,1848,1851,1852,1853,1854,1855,1856,1857,1858,1859,1861,1862,1864,1865,1866,1869,1871,1872,1873,1874,1875,1876,1877,1878,1879,1881,1883,1884,1885,1886,1887,1888,1889,1890,1891,1892,1893,1895,1896,1897,1898,1899,1900,1901,1902,1903,1904,1905,1906,1907,1908,1909,1910,1911,1912,1913,1914,1915,1916,1917,1918,1920,1921,1922,1923,1924,1927,1928,1929,1930,1931,1932,1934,1936,1939,1940,1943,1944,1945,1946,1951,1952,1953,1954,1957,1961,1963,1964,1965,1966,1967,1968,1969,1972,1974,1975,1979,1980,1981,1982,1984,1985,1987,1992,1994,1996,1997,1998,1999,2005,2007,2009,2014,2015,2016,2017,2019,2020,2021,2022,2024,2026,2027,2028,2029,2030,2031,2032,2036,2037,2039,2041,2042,2044,2045,2046,2047,2048,2049,2050,2051,2052,2053,2054,2057,2058,2059,2061,2063,2065,2066,2067,2068,2072,2073,2074,2075,2077,2078,2080,2083,2085,2088,2089,2090,2093,2094,2099,2100,2102,2103,2104,2105,2106,2107,2110,2111,2112,2113,2114,2115,2116,2117,2118,2119,2121,2122,2124,2126,2127,2128,2129,2130,2131,2132,2133,2134,2135,2136,2137,2138,2139,2140,2141,2142,2145,2146,2147,2149,2150,2152,2153,2154,2155,2156,2157,2158,2159,2161,2162,2163,2165,2166,2167,2168,2169,2170,2172,2173,2174,2175,2177,2179,2180,2181,2182,2183,2184,2185,2186,2187,2188,2189,2190,2191,2192,2193,2194,2195,2196,2197,2198,2199,2200,2201,2202,2203,2204,2205,2206,2210,2211,2213,2218,2219,2220,2221,2222,2223,2224,2225,2226,2228,2231,2233,2234,2235,2236,2237,2242,2243,2247,2249,2250,2252,2254,2255,2256,2258,2260,2261,2263,2264,2268,2270,2271,2272,2273,2274,2275,2276,2278,2280,2281,2282,2283,2286,2287,2288,2290,2291,2292,2293,2296,2297,2298,2299,2300,2301,2302,2303,2306,2308,2309,2311,2312,2315,2316,2317,2318,2319,2320,2321,2322,2323,2325,2326,2327,2330,2331,2332,2333,2334,2335,2336,2338,2339,2340,2341,2342,2345,2346,2348,2350,2351,2353,2354,2355,2356,2357,2358,2359,2360,2361,2364,2365,2366,2368,2369,2370,2372,2374,2376,2379,2380,2382,2383,2385,2386,2388,2389,2390,2391,2392,2393,2395,2397,2398,2402,2403,2404,2405,2407,2409,2410,2411,2412,2413,2414,2415,2417,2418,2419,2420,2421,2422,2423,2424,2425,2426,2427,2428,2429,2430,2431,2432,2433,2435,2436,2437,2438,2439,2441,2442,2443,2445,2446,2448,2449,2450,2451,2452,2453,2454,2455,2456,2458,2459,2461,2462,2463,2464,2465,2466,2468,2469,2470,2471,2472,2473,2474,2475,2476,2477,2479,2481,2482,2483,2485,2486,2487,2489,2490,2491,2495,2496,2497,2499,2500,2501,2502,2503,2504,2510,2511,2512,2513,2514,2515,2516,2518,2521,2523,2524,2525,2528,2532,2533,2535,2538,2539,2540,2541,2543,2546,2549,2550,2552,2554,2555,2556,2557,2559,2561,2562,2563,2566,2567,2568,2569,2571,2572,2573,2574,2576,2577,2578,2579,2580,2581,2582,2583,2584,2586,2589,2591,2592,2593,2595,2597,2598,2599,2601,2602,2603,2605,2606,2608,2610,2611,2612,2613,2614,2615,2616,2617,2618,2620,2621,2622,2623,2624,2625,2627,2628,2629,2630,2631,2632,2633,2634,2635,2636,2637,2638,2639,2640,2643,2644,2645,2647,2651,2654,2655,2658,2661,2662,2663,2664,2665,2666,2669,2670,2672,2673,2674,2676,2680,2682,2684,2685,2686,2687,2689,2690,2691,2693,2694,2695,2696,2697,2698,2699,2700,2701,2702,2703,2704,2705,2706,2707,2708,2709,2710,2711,2713,2714,2715,2716,2717,2720,2721,2722,2723,2724,2725,2726,2727,2728,2729,2730,2731,2732,2733,2734,2735,2736,2737,2738,2740,2741,2742,2743,2744,2745,2746,2747,2748,2749,2750,2751,2752,2753,2754,2755,2756,2757,2759,2760,2761,2762,2763,2764,2766,2767,2769,2772,2774,2775,2777,2779,2782,2783,2784,2785,2788]